p cnf 20 9
a 1 0
e 2 3 4 0
a 5 6 0
e 7 0
a 8 0
e 9 10 11 0
a 12 13 14 0
e 15 16 0
a 17 18 0
e 19 0
a 20 0
11 7 -12 -17 0
1 13 16 3 0
8 -4 15 -13 0
-9 19 14 1 0
-15 20 7 4 0
11 9 14 -10 -15 0
12 -13 10 18 -15 0
6 -5 -17 18 0
-17 16 0
